sat
(:eliminated-vars              1
 :max-memory                   18.34
 :memory                       18.14
 :nlsat-conflicts              2
 :nlsat-irrational-assignments 1
 :nlsat-propagations           14
 :nlsat-stages                 5
 :num-allocs                   130648
 :rlimit-count                 68110
 :time                         0.12
 :total-time                   0.13)
